NAME CFLP
ROWS
 N  OBJ
 E  demand_1
 E  demand_2
 E  demand_3
 E  demand_4
 E  demand_5
 E  demand_6
 E  demand_7
 E  demand_8
 E  demand_9
 E  demand_10
 E  demand_11
 E  demand_12
 E  demand_13
 E  demand_14
 E  demand_15
 E  demand_16
 E  demand_17
 E  demand_18
 E  demand_19
 E  demand_20
 E  demand_21
 E  demand_22
 E  demand_23
 E  demand_24
 L  c_disjunction_1_diajunct_1
 L  c_disjunction_1_disjunct_2
 E  R26     
 L  c_disjunction_2_diajunct_1
 L  c_disjunction_2_disjunct_2
 E  R29     
 L  c_disjunction_3_diajunct_1
 L  c_disjunction_3_disjunct_2
 E  R32     
 L  c_disjunction_4_diajunct_1
 L  c_disjunction_4_disjunct_2
 E  R35     
 L  c_disjunction_5_diajunct_1
 L  c_disjunction_5_disjunct_2
 E  R38     
 L  c_disjunction_6_diajunct_1
 L  c_disjunction_6_disjunct_2
 E  R41     
 L  c_disjunction_7_diajunct_1
 L  c_disjunction_7_disjunct_2
 E  R44     
 L  c_disjunction_8_diajunct_1
 L  c_disjunction_8_disjunct_2
 E  R47     
 L  c_disjunction_9_diajunct_1
 L  c_disjunction_9_disjunct_2
 E  R50     
 L  c_disjunction_10_diajunct_1
 L  c_disjunction_10_disjunct_2
 E  R53     
 L  c_disjunction_11_diajunct_1
 L  c_disjunction_11_disjunct_2
 E  R56     
 L  c_disjunction_12_diajunct_1
 L  c_disjunction_12_disjunct_2
 E  R59     
 L  c_disjunction_13_diajunct_1
 L  c_disjunction_13_disjunct_2
 E  R62     
 L  c_disjunction_14_diajunct_1
 L  c_disjunction_14_disjunct_2
 E  R65     
 L  c_disjunction_15_diajunct_1
 L  c_disjunction_15_disjunct_2
 E  R68     
 L  c_disjunction_16_diajunct_1
 L  c_disjunction_16_disjunct_2
 E  R71     
 L  c_disjunction_17_diajunct_1
 L  c_disjunction_17_disjunct_2
 E  R74     
 L  c_disjunction_18_diajunct_1
 L  c_disjunction_18_disjunct_2
 E  R77     
 L  c_disjunction_19_diajunct_1
 L  c_disjunction_19_disjunct_2
 E  R80     
 L  c_disjunction_20_diajunct_1
 L  c_disjunction_20_disjunct_2
 E  R83     
 L  c_disjunction_21_diajunct_1
 L  c_disjunction_21_disjunct_2
 E  R86     
 L  c_disjunction_22_diajunct_1
 L  c_disjunction_22_disjunct_2
 E  R89     
 L  c_disjunction_23_diajunct_1
 L  c_disjunction_23_disjunct_2
 E  R92     
 L  c_disjunction_24_diajunct_1
 L  c_disjunction_24_disjunct_2
 E  R95     
COLUMNS
    MARKER    'MARKER'                 'INTORG'
    ind_disjunction_1_disjunct_1  OBJ       1138
    ind_disjunction_1_disjunct_1  c_disjunction_1_diajunct_1  -108
    ind_disjunction_1_disjunct_1  R26       1
    ind_disjunction_2_disjunct_1  OBJ       1138
    ind_disjunction_2_disjunct_1  c_disjunction_2_diajunct_1  -108
    ind_disjunction_2_disjunct_1  R29       1
    ind_disjunction_3_disjunct_1  OBJ       1138
    ind_disjunction_3_disjunct_1  c_disjunction_3_diajunct_1  -108
    ind_disjunction_3_disjunct_1  R32       1
    ind_disjunction_4_disjunct_1  OBJ       1138
    ind_disjunction_4_disjunct_1  c_disjunction_4_diajunct_1  -108
    ind_disjunction_4_disjunct_1  R35       1
    ind_disjunction_5_disjunct_1  OBJ       1138
    ind_disjunction_5_disjunct_1  c_disjunction_5_diajunct_1  -108
    ind_disjunction_5_disjunct_1  R38       1
    ind_disjunction_6_disjunct_1  OBJ       1138
    ind_disjunction_6_disjunct_1  c_disjunction_6_diajunct_1  -108
    ind_disjunction_6_disjunct_1  R41       1
    ind_disjunction_7_disjunct_1  OBJ       1138
    ind_disjunction_7_disjunct_1  c_disjunction_7_diajunct_1  -108
    ind_disjunction_7_disjunct_1  R44       1
    ind_disjunction_8_disjunct_1  OBJ       1138
    ind_disjunction_8_disjunct_1  c_disjunction_8_diajunct_1  -108
    ind_disjunction_8_disjunct_1  R47       1
    ind_disjunction_9_disjunct_1  OBJ       1138
    ind_disjunction_9_disjunct_1  c_disjunction_9_diajunct_1  -108
    ind_disjunction_9_disjunct_1  R50       1
    ind_disjunction_10_disjunct_1  OBJ       1138
    ind_disjunction_10_disjunct_1  c_disjunction_10_diajunct_1  -108
    ind_disjunction_10_disjunct_1  R53       1
    ind_disjunction_11_disjunct_1  OBJ       1138
    ind_disjunction_11_disjunct_1  c_disjunction_11_diajunct_1  -108
    ind_disjunction_11_disjunct_1  R56       1
    ind_disjunction_12_disjunct_1  OBJ       1138
    ind_disjunction_12_disjunct_1  c_disjunction_12_diajunct_1  -108
    ind_disjunction_12_disjunct_1  R59       1
    ind_disjunction_13_disjunct_1  OBJ       1138
    ind_disjunction_13_disjunct_1  c_disjunction_13_diajunct_1  -108
    ind_disjunction_13_disjunct_1  R62       1
    ind_disjunction_14_disjunct_1  OBJ       1138
    ind_disjunction_14_disjunct_1  c_disjunction_14_diajunct_1  -108
    ind_disjunction_14_disjunct_1  R65       1
    ind_disjunction_15_disjunct_1  OBJ       1138
    ind_disjunction_15_disjunct_1  c_disjunction_15_diajunct_1  -108
    ind_disjunction_15_disjunct_1  R68       1
    ind_disjunction_16_disjunct_1  OBJ       1138
    ind_disjunction_16_disjunct_1  c_disjunction_16_diajunct_1  -108
    ind_disjunction_16_disjunct_1  R71       1
    ind_disjunction_17_disjunct_1  OBJ       1138
    ind_disjunction_17_disjunct_1  c_disjunction_17_diajunct_1  -108
    ind_disjunction_17_disjunct_1  R74       1
    ind_disjunction_18_disjunct_1  OBJ       1138
    ind_disjunction_18_disjunct_1  c_disjunction_18_diajunct_1  -108
    ind_disjunction_18_disjunct_1  R77       1
    ind_disjunction_19_disjunct_1  OBJ       1138
    ind_disjunction_19_disjunct_1  c_disjunction_19_diajunct_1  -108
    ind_disjunction_19_disjunct_1  R80       1
    ind_disjunction_20_disjunct_1  OBJ       1138
    ind_disjunction_20_disjunct_1  c_disjunction_20_diajunct_1  -108
    ind_disjunction_20_disjunct_1  R83       1
    ind_disjunction_21_disjunct_1  OBJ       1138
    ind_disjunction_21_disjunct_1  c_disjunction_21_diajunct_1  -108
    ind_disjunction_21_disjunct_1  R86       1
    ind_disjunction_22_disjunct_1  OBJ       1138
    ind_disjunction_22_disjunct_1  c_disjunction_22_diajunct_1  -108
    ind_disjunction_22_disjunct_1  R89       1
    ind_disjunction_23_disjunct_1  OBJ       1138
    ind_disjunction_23_disjunct_1  c_disjunction_23_diajunct_1  -108
    ind_disjunction_23_disjunct_1  R92       1
    ind_disjunction_24_disjunct_1  OBJ       1138
    ind_disjunction_24_disjunct_1  c_disjunction_24_diajunct_1  -108
    ind_disjunction_24_disjunct_1  R95       1
    ind_disjunction_1_disjunct_2  c_disjunction_1_disjunct_2  1
    ind_disjunction_1_disjunct_2  R26       1
    ind_disjunction_2_disjunct_2  c_disjunction_2_disjunct_2  3
    ind_disjunction_2_disjunct_2  R29       1
    ind_disjunction_3_disjunct_2  c_disjunction_3_disjunct_2  1
    ind_disjunction_3_disjunct_2  R32       1
    ind_disjunction_4_disjunct_2  c_disjunction_4_disjunct_2  2
    ind_disjunction_4_disjunct_2  R35       1
    ind_disjunction_5_disjunct_2  c_disjunction_5_disjunct_2  3
    ind_disjunction_5_disjunct_2  R38       1
    ind_disjunction_6_disjunct_2  c_disjunction_6_disjunct_2  1
    ind_disjunction_6_disjunct_2  R41       1
    ind_disjunction_7_disjunct_2  c_disjunction_7_disjunct_2  3
    ind_disjunction_7_disjunct_2  R44       1
    ind_disjunction_8_disjunct_2  c_disjunction_8_disjunct_2  2
    ind_disjunction_8_disjunct_2  R47       1
    ind_disjunction_9_disjunct_2  c_disjunction_9_disjunct_2  2
    ind_disjunction_9_disjunct_2  R50       1
    ind_disjunction_10_disjunct_2  c_disjunction_10_disjunct_2  2
    ind_disjunction_10_disjunct_2  R53       1
    ind_disjunction_11_disjunct_2  c_disjunction_11_disjunct_2  3
    ind_disjunction_11_disjunct_2  R56       1
    ind_disjunction_12_disjunct_2  c_disjunction_12_disjunct_2  1
    ind_disjunction_12_disjunct_2  R59       1
    ind_disjunction_13_disjunct_2  c_disjunction_13_disjunct_2  2
    ind_disjunction_13_disjunct_2  R62       1
    ind_disjunction_14_disjunct_2  c_disjunction_14_disjunct_2  1
    ind_disjunction_14_disjunct_2  R65       1
    ind_disjunction_15_disjunct_2  c_disjunction_15_disjunct_2  3
    ind_disjunction_15_disjunct_2  R68       1
    ind_disjunction_16_disjunct_2  c_disjunction_16_disjunct_2  3
    ind_disjunction_16_disjunct_2  R71       1
    ind_disjunction_17_disjunct_2  c_disjunction_17_disjunct_2  1
    ind_disjunction_17_disjunct_2  R74       1
    ind_disjunction_18_disjunct_2  c_disjunction_18_disjunct_2  3
    ind_disjunction_18_disjunct_2  R77       1
    ind_disjunction_19_disjunct_2  c_disjunction_19_disjunct_2  3
    ind_disjunction_19_disjunct_2  R80       1
    ind_disjunction_20_disjunct_2  c_disjunction_20_disjunct_2  1
    ind_disjunction_20_disjunct_2  R83       1
    ind_disjunction_21_disjunct_2  c_disjunction_21_disjunct_2  1
    ind_disjunction_21_disjunct_2  R86       1
    ind_disjunction_22_disjunct_2  c_disjunction_22_disjunct_2  1
    ind_disjunction_22_disjunct_2  R89       1
    ind_disjunction_23_disjunct_2  c_disjunction_23_disjunct_2  2
    ind_disjunction_23_disjunct_2  R92       1
    ind_disjunction_24_disjunct_2  c_disjunction_24_disjunct_2  3
    ind_disjunction_24_disjunct_2  R95       1
    x[1,1]    demand_1  1
    x[1,1]    c_disjunction_1_diajunct_1  9
    x[1,1]    c_disjunction_1_disjunct_2  1
    x[23,1]   OBJ       31.3
    x[23,1]   demand_1  1
    x[23,1]   c_disjunction_23_diajunct_1  9
    x[23,1]   c_disjunction_23_disjunct_2  1
    x[2,2]    demand_2  1
    x[2,2]    c_disjunction_2_diajunct_1  26
    x[2,2]    c_disjunction_2_disjunct_2  1
    x[16,2]   OBJ       23.3
    x[16,2]   demand_2  1
    x[16,2]   c_disjunction_16_diajunct_1  26
    x[16,2]   c_disjunction_16_disjunct_2  1
    x[3,3]    demand_3  1
    x[3,3]    c_disjunction_3_diajunct_1  14
    x[3,3]    c_disjunction_3_disjunct_2  1
    x[7,3]    OBJ       26.9
    x[7,3]    demand_3  1
    x[7,3]    c_disjunction_7_diajunct_1  14
    x[7,3]    c_disjunction_7_disjunct_2  1
    x[4,4]    demand_4  1
    x[4,4]    c_disjunction_4_diajunct_1  27
    x[4,4]    c_disjunction_4_disjunct_2  1
    x[5,4]    OBJ       36.6
    x[5,4]    demand_4  1
    x[5,4]    c_disjunction_5_diajunct_1  27
    x[5,4]    c_disjunction_5_disjunct_2  1
    x[5,5]    demand_5  1
    x[5,5]    c_disjunction_5_diajunct_1  20
    x[5,5]    c_disjunction_5_disjunct_2  1
    x[4,5]    OBJ       27.1
    x[4,5]    demand_5  1
    x[4,5]    c_disjunction_4_diajunct_1  20
    x[4,5]    c_disjunction_4_disjunct_2  1
    x[6,6]    demand_6  1
    x[6,6]    c_disjunction_6_diajunct_1  10
    x[6,6]    c_disjunction_6_disjunct_2  1
    x[24,6]   OBJ       22.6
    x[24,6]   demand_6  1
    x[24,6]   c_disjunction_24_diajunct_1  10
    x[24,6]   c_disjunction_24_disjunct_2  1
    x[7,7]    demand_7  1
    x[7,7]    c_disjunction_7_diajunct_1  9
    x[7,7]    c_disjunction_7_disjunct_2  1
    x[24,7]   OBJ       8
    x[24,7]   demand_7  1
    x[24,7]   c_disjunction_24_diajunct_1  9
    x[24,7]   c_disjunction_24_disjunct_2  1
    x[8,8]    demand_8  1
    x[8,8]    c_disjunction_8_diajunct_1  31
    x[8,8]    c_disjunction_8_disjunct_2  1
    x[10,8]   OBJ       24.6
    x[10,8]   demand_8  1
    x[10,8]   c_disjunction_10_diajunct_1  31
    x[10,8]   c_disjunction_10_disjunct_2  1
    x[9,9]    demand_9  1
    x[9,9]    c_disjunction_9_diajunct_1  13
    x[9,9]    c_disjunction_9_disjunct_2  1
    x[18,9]   OBJ       8.7
    x[18,9]   demand_9  1
    x[18,9]   c_disjunction_18_diajunct_1  13
    x[18,9]   c_disjunction_18_disjunct_2  1
    x[10,10]  demand_10  1
    x[10,10]  c_disjunction_10_diajunct_1  35
    x[10,10]  c_disjunction_10_disjunct_2  1
    x[8,10]   OBJ       27.8
    x[8,10]   demand_10  1
    x[8,10]   c_disjunction_8_diajunct_1  35
    x[8,10]   c_disjunction_8_disjunct_2  1
    x[11,11]  demand_11  1
    x[11,11]  c_disjunction_11_diajunct_1  14
    x[11,11]  c_disjunction_11_disjunct_2  1
    x[13,11]  OBJ       9
    x[13,11]  demand_11  1
    x[13,11]  c_disjunction_13_diajunct_1  14
    x[13,11]  c_disjunction_13_disjunct_2  1
    x[12,12]  demand_12  1
    x[12,12]  c_disjunction_12_diajunct_1  22
    x[12,12]  c_disjunction_12_disjunct_2  1
    x[16,12]  OBJ       26.6
    x[16,12]  demand_12  1
    x[16,12]  c_disjunction_16_diajunct_1  22
    x[16,12]  c_disjunction_16_disjunct_2  1
    x[13,13]  demand_13  1
    x[13,13]  c_disjunction_13_diajunct_1  27
    x[13,13]  c_disjunction_13_disjunct_2  1
    x[11,13]  OBJ       17.3
    x[11,13]  demand_13  1
    x[11,13]  c_disjunction_11_diajunct_1  27
    x[11,13]  c_disjunction_11_disjunct_2  1
    x[14,14]  demand_14  1
    x[14,14]  c_disjunction_14_diajunct_1  16
    x[14,14]  c_disjunction_14_disjunct_2  1
    x[18,14]  OBJ       26.7
    x[18,14]  demand_14  1
    x[18,14]  c_disjunction_18_diajunct_1  16
    x[18,14]  c_disjunction_18_disjunct_2  1
    x[15,15]  demand_15  1
    x[15,15]  c_disjunction_15_diajunct_1  32
    x[15,15]  c_disjunction_15_disjunct_2  1
    x[19,15]  OBJ       31.4
    x[19,15]  demand_15  1
    x[19,15]  c_disjunction_19_diajunct_1  32
    x[19,15]  c_disjunction_19_disjunct_2  1
    x[16,16]  demand_16  1
    x[16,16]  c_disjunction_16_diajunct_1  31
    x[16,16]  c_disjunction_16_disjunct_2  1
    x[2,16]   OBJ       27.8
    x[2,16]   demand_16  1
    x[2,16]   c_disjunction_2_diajunct_1  31
    x[2,16]   c_disjunction_2_disjunct_2  1
    x[17,17]  demand_17  1
    x[17,17]  c_disjunction_17_diajunct_1  13
    x[17,17]  c_disjunction_17_disjunct_2  1
    x[5,17]   OBJ       23.1
    x[5,17]   demand_17  1
    x[5,17]   c_disjunction_5_diajunct_1  13
    x[5,17]   c_disjunction_5_disjunct_2  1
    x[18,18]  demand_18  1
    x[18,18]  c_disjunction_18_diajunct_1  12
    x[18,18]  c_disjunction_18_disjunct_2  1
    x[9,18]   OBJ       8.1
    x[9,18]   demand_18  1
    x[9,18]   c_disjunction_9_diajunct_1  12
    x[9,18]   c_disjunction_9_disjunct_2  1
    x[19,19]  demand_19  1
    x[19,19]  c_disjunction_19_diajunct_1  7
    x[19,19]  c_disjunction_19_disjunct_2  1
    x[15,19]  OBJ       6.9
    x[15,19]  demand_19  1
    x[15,19]  c_disjunction_15_diajunct_1  7
    x[15,19]  c_disjunction_15_disjunct_2  1
    x[20,20]  demand_20  1
    x[20,20]  c_disjunction_20_diajunct_1  31
    x[20,20]  c_disjunction_20_disjunct_2  1
    x[11,20]  OBJ       38.3
    x[11,20]  demand_20  1
    x[11,20]  c_disjunction_11_diajunct_1  31
    x[11,20]  c_disjunction_11_disjunct_2  1
    x[21,21]  demand_21  1
    x[21,21]  c_disjunction_21_diajunct_1  9
    x[21,21]  c_disjunction_21_disjunct_2  1
    x[2,21]   OBJ       12.7
    x[2,21]   demand_21  1
    x[2,21]   c_disjunction_2_diajunct_1  9
    x[2,21]   c_disjunction_2_disjunct_2  1
    x[22,22]  demand_22  1
    x[22,22]  c_disjunction_22_diajunct_1  6
    x[22,22]  c_disjunction_22_disjunct_2  1
    x[15,22]  OBJ       6.3
    x[15,22]  demand_22  1
    x[15,22]  c_disjunction_15_diajunct_1  6
    x[15,22]  c_disjunction_15_disjunct_2  1
    x[23,23]  demand_23  1
    x[23,23]  c_disjunction_23_diajunct_1  13
    x[23,23]  c_disjunction_23_disjunct_2  1
    x[19,23]  OBJ       17.6
    x[19,23]  demand_23  1
    x[19,23]  c_disjunction_19_diajunct_1  13
    x[19,23]  c_disjunction_19_disjunct_2  1
    x[24,24]  demand_24  1
    x[24,24]  c_disjunction_24_diajunct_1  8
    x[24,24]  c_disjunction_24_disjunct_2  1
    x[7,24]   OBJ       7.2
    x[7,24]   demand_24  1
    x[7,24]   c_disjunction_7_diajunct_1  8
    x[7,24]   c_disjunction_7_disjunct_2  1
    MARKER    'MARKER'                 'INTEND'
RHS
    RHS1      demand_1  1
    RHS1      demand_2  1
    RHS1      demand_3  1
    RHS1      demand_4  1
    RHS1      demand_5  1
    RHS1      demand_6  1
    RHS1      demand_7  1
    RHS1      demand_8  1
    RHS1      demand_9  1
    RHS1      demand_10  1
    RHS1      demand_11  1
    RHS1      demand_12  1
    RHS1      demand_13  1
    RHS1      demand_14  1
    RHS1      demand_15  1
    RHS1      demand_16  1
    RHS1      demand_17  1
    RHS1      demand_18  1
    RHS1      demand_19  1
    RHS1      demand_20  1
    RHS1      demand_21  1
    RHS1      demand_22  1
    RHS1      demand_23  1
    RHS1      demand_24  1
    RHS1      c_disjunction_1_disjunct_2  1
    RHS1      R26       1
    RHS1      c_disjunction_2_disjunct_2  3
    RHS1      R29       1
    RHS1      c_disjunction_3_disjunct_2  1
    RHS1      R32       1
    RHS1      c_disjunction_4_disjunct_2  2
    RHS1      R35       1
    RHS1      c_disjunction_5_disjunct_2  3
    RHS1      R38       1
    RHS1      c_disjunction_6_disjunct_2  1
    RHS1      R41       1
    RHS1      c_disjunction_7_disjunct_2  3
    RHS1      R44       1
    RHS1      c_disjunction_8_disjunct_2  2
    RHS1      R47       1
    RHS1      c_disjunction_9_disjunct_2  2
    RHS1      R50       1
    RHS1      c_disjunction_10_disjunct_2  2
    RHS1      R53       1
    RHS1      c_disjunction_11_disjunct_2  3
    RHS1      R56       1
    RHS1      c_disjunction_12_disjunct_2  1
    RHS1      R59       1
    RHS1      c_disjunction_13_disjunct_2  2
    RHS1      R62       1
    RHS1      c_disjunction_14_disjunct_2  1
    RHS1      R65       1
    RHS1      c_disjunction_15_disjunct_2  3
    RHS1      R68       1
    RHS1      c_disjunction_16_disjunct_2  3
    RHS1      R71       1
    RHS1      c_disjunction_17_disjunct_2  1
    RHS1      R74       1
    RHS1      c_disjunction_18_disjunct_2  3
    RHS1      R77       1
    RHS1      c_disjunction_19_disjunct_2  3
    RHS1      R80       1
    RHS1      c_disjunction_20_disjunct_2  1
    RHS1      R83       1
    RHS1      c_disjunction_21_disjunct_2  1
    RHS1      R86       1
    RHS1      c_disjunction_22_disjunct_2  1
    RHS1      R89       1
    RHS1      c_disjunction_23_disjunct_2  2
    RHS1      R92       1
    RHS1      c_disjunction_24_disjunct_2  3
    RHS1      R95       1
BOUNDS
 BV BND1      ind_disjunction_1_disjunct_1
 BV BND1      ind_disjunction_2_disjunct_1
 BV BND1      ind_disjunction_3_disjunct_1
 BV BND1      ind_disjunction_4_disjunct_1
 BV BND1      ind_disjunction_5_disjunct_1
 BV BND1      ind_disjunction_6_disjunct_1
 BV BND1      ind_disjunction_7_disjunct_1
 BV BND1      ind_disjunction_8_disjunct_1
 BV BND1      ind_disjunction_9_disjunct_1
 BV BND1      ind_disjunction_10_disjunct_1
 BV BND1      ind_disjunction_11_disjunct_1
 BV BND1      ind_disjunction_12_disjunct_1
 BV BND1      ind_disjunction_13_disjunct_1
 BV BND1      ind_disjunction_14_disjunct_1
 BV BND1      ind_disjunction_15_disjunct_1
 BV BND1      ind_disjunction_16_disjunct_1
 BV BND1      ind_disjunction_17_disjunct_1
 BV BND1      ind_disjunction_18_disjunct_1
 BV BND1      ind_disjunction_19_disjunct_1
 BV BND1      ind_disjunction_20_disjunct_1
 BV BND1      ind_disjunction_21_disjunct_1
 BV BND1      ind_disjunction_22_disjunct_1
 BV BND1      ind_disjunction_23_disjunct_1
 BV BND1      ind_disjunction_24_disjunct_1
 BV BND1      ind_disjunction_1_disjunct_2
 BV BND1      ind_disjunction_2_disjunct_2
 BV BND1      ind_disjunction_3_disjunct_2
 BV BND1      ind_disjunction_4_disjunct_2
 BV BND1      ind_disjunction_5_disjunct_2
 BV BND1      ind_disjunction_6_disjunct_2
 BV BND1      ind_disjunction_7_disjunct_2
 BV BND1      ind_disjunction_8_disjunct_2
 BV BND1      ind_disjunction_9_disjunct_2
 BV BND1      ind_disjunction_10_disjunct_2
 BV BND1      ind_disjunction_11_disjunct_2
 BV BND1      ind_disjunction_12_disjunct_2
 BV BND1      ind_disjunction_13_disjunct_2
 BV BND1      ind_disjunction_14_disjunct_2
 BV BND1      ind_disjunction_15_disjunct_2
 BV BND1      ind_disjunction_16_disjunct_2
 BV BND1      ind_disjunction_17_disjunct_2
 BV BND1      ind_disjunction_18_disjunct_2
 BV BND1      ind_disjunction_19_disjunct_2
 BV BND1      ind_disjunction_20_disjunct_2
 BV BND1      ind_disjunction_21_disjunct_2
 BV BND1      ind_disjunction_22_disjunct_2
 BV BND1      ind_disjunction_23_disjunct_2
 BV BND1      ind_disjunction_24_disjunct_2
 BV BND1      x[1,1]  
 BV BND1      x[23,1] 
 BV BND1      x[2,2]  
 BV BND1      x[16,2] 
 BV BND1      x[3,3]  
 BV BND1      x[7,3]  
 BV BND1      x[4,4]  
 BV BND1      x[5,4]  
 BV BND1      x[5,5]  
 BV BND1      x[4,5]  
 BV BND1      x[6,6]  
 BV BND1      x[24,6] 
 BV BND1      x[7,7]  
 BV BND1      x[24,7] 
 BV BND1      x[8,8]  
 BV BND1      x[10,8] 
 BV BND1      x[9,9]  
 BV BND1      x[18,9] 
 BV BND1      x[10,10]
 BV BND1      x[8,10] 
 BV BND1      x[11,11]
 BV BND1      x[13,11]
 BV BND1      x[12,12]
 BV BND1      x[16,12]
 BV BND1      x[13,13]
 BV BND1      x[11,13]
 BV BND1      x[14,14]
 BV BND1      x[18,14]
 BV BND1      x[15,15]
 BV BND1      x[19,15]
 BV BND1      x[16,16]
 BV BND1      x[2,16] 
 BV BND1      x[17,17]
 BV BND1      x[5,17] 
 BV BND1      x[18,18]
 BV BND1      x[9,18] 
 BV BND1      x[19,19]
 BV BND1      x[15,19]
 BV BND1      x[20,20]
 BV BND1      x[11,20]
 BV BND1      x[21,21]
 BV BND1      x[2,21] 
 BV BND1      x[22,22]
 BV BND1      x[15,22]
 BV BND1      x[23,23]
 BV BND1      x[19,23]
 BV BND1      x[24,24]
 BV BND1      x[7,24] 
ENDATA
